c File:  johnson8-4-4.clq
c
c Source: Panos Pardalos pardalos@math.ufl.edu
c
c Reference: Johnson graph: johnsona-b-c is generated by
c            binary vectors of length a and weight b, with
c            two vertices adjacent if the hamming distance
c            between them is at least d.
c
p wcnf 70 3710
9 1 10 0
9 -1 -10 0
4 1 11 0
4 -1 -11 0
8 1 12 0
8 -1 -12 0
8 1 13 0
8 -1 -13 0
10 1 14 0
10 -1 -14 0
2 1 15 0
2 -1 -15 0
4 1 20 0
4 -1 -20 0
8 1 21 0
8 -1 -21 0
3 1 22 0
3 -1 -22 0
6 1 23 0
6 -1 -23 0
5 1 24 0
5 -1 -24 0
7 1 25 0
7 -1 -25 0
4 1 26 0
4 -1 -26 0
6 1 27 0
6 -1 -27 0
10 1 28 0
10 -1 -28 0
10 1 29 0
10 -1 -29 0
7 1 30 0
7 -1 -30 0
8 1 31 0
8 -1 -31 0
2 1 32 0
2 -1 -32 0
7 1 33 0
7 -1 -33 0
1 1 34 0
1 -1 -34 0
3 1 35 0
3 -1 -35 0
2 1 40 0
2 -1 -40 0
9 1 41 0
9 -1 -41 0
2 1 42 0
2 -1 -42 0
5 1 43 0
5 -1 -43 0
2 1 44 0
2 -1 -44 0
2 1 45 0
2 -1 -45 0
10 1 46 0
10 -1 -46 0
3 1 47 0
3 -1 -47 0
6 1 48 0
6 -1 -48 0
9 1 49 0
9 -1 -49 0
7 1 50 0
7 -1 -50 0
3 1 51 0
3 -1 -51 0
7 1 52 0
7 -1 -52 0
6 1 53 0
6 -1 -53 0
5 1 54 0
5 -1 -54 0
10 1 55 0
10 -1 -55 0
3 1 56 0
3 -1 -56 0
8 1 57 0
8 -1 -57 0
6 1 58 0
6 -1 -58 0
8 1 59 0
8 -1 -59 0
5 1 60 0
5 -1 -60 0
9 1 61 0
9 -1 -61 0
3 1 62 0
3 -1 -62 0
4 1 63 0
4 -1 -63 0
9 1 64 0
9 -1 -64 0
10 1 65 0
10 -1 -65 0
1 1 66 0
1 -1 -66 0
10 1 67 0
10 -1 -67 0
6 1 68 0
6 -1 -68 0
1 1 69 0
